SECTION Graph
Nodes 128
Edges 227
E 1 3 1
E 1 116 114
E 1 117 12
E 2 34 53
E 2 117 1
E 3 4 12
E 3 5 1
E 3 115 114
E 4 6 1
E 4 117 1
E 5 6 12
E 5 114 114
E 7 95 7
E 7 100 1
E 7 102 1
E 7 106 6
E 8 106 5
E 8 111 1
E 9 100 6
E 9 106 1
E 10 102 6
E 10 106 1
E 10 109 4
E 10 111 5
E 11 103 1
E 11 108 5
E 12 108 6
E 12 113 1
E 13 96 14
E 13 103 5
E 13 108 1
E 13 113 6
E 14 108 1
E 15 20 7
E 15 69 1
E 15 72 1
E 15 76 6
E 16 76 5
E 16 82 1
E 17 69 6
E 17 76 1
E 18 72 6
E 18 76 1
E 18 82 5
E 19 54 7
E 19 57 1
E 19 58 1
E 19 60 5
E 20 60 6
E 20 64 1
E 20 66 1
E 21 57 5
E 21 60 1
E 21 64 6
E 22 58 5
E 22 60 1
E 22 65 6
E 22 66 6
E 23 52 1
E 23 56 6
E 24 56 5
E 24 59 1
E 24 74 18
E 25 51 8
E 25 52 6
E 25 56 1
E 25 59 5
E 26 56 1
E 26 75 23
E 27 38 2
E 28 29 2
E 28 42 1
E 29 43 1
E 29 45 1
E 30 36 28
E 30 37 7
E 30 39 1
E 30 41 5
E 31 40 1
E 31 44 5
E 32 35 1
E 33 36 5
E 33 41 28
E 35 36 7
E 35 37 28
E 37 38 1
E 38 39 7
E 39 40 2
E 39 42 5
E 40 43 5
E 41 42 1
E 42 43 2
E 43 44 1
E 44 45 1
E 45 46 27
E 46 47 1
E 46 49 6
E 47 48 1
E 47 50 6
E 48 51 6
E 48 52 8
E 49 50 1
E 49 53 5
E 50 51 1
E 50 54 5
E 51 55 5
E 53 54 1
E 53 57 7
E 54 55 1
E 55 58 7
E 55 59 8
E 58 61 6
E 59 63 7
E 61 62 1
E 61 65 5
E 62 63 1
E 62 67 5
E 63 68 5
E 64 69 7
E 65 67 1
E 65 70 6
E 66 70 6
E 66 72 7
E 67 68 1
E 67 71 6
E 68 73 6
E 70 71 1
E 70 77 7
E 71 73 1
E 71 78 7
E 72 77 6
E 73 74 1
E 73 79 7
E 74 75 1
E 74 80 7
E 75 81 7
E 77 78 1
E 77 87 18
E 78 79 1
E 78 89 18
E 79 80 1
E 79 91 18
E 80 81 1
E 81 103 30
E 82 83 7
E 83 84 1
E 83 86 5
E 84 85 1
E 84 88 5
E 85 87 4
E 85 90 5
E 86 88 1
E 86 93 6
E 87 89 1
E 87 92 5
E 88 90 1
E 88 95 6
E 89 91 1
E 89 94 5
E 90 92 4
E 90 97 6
E 91 96 5
E 91 103 14
E 92 94 1
E 92 98 6
E 93 95 1
E 93 100 7
E 94 96 1
E 94 99 6
E 95 97 1
E 96 101 6
E 97 98 4
E 97 102 7
E 98 99 1
E 98 104 7
E 99 101 1
E 99 105 7
E 101 107 7
E 101 113 14
E 102 104 4
E 104 105 1
E 104 109 6
E 105 107 1
E 105 110 6
E 107 112 6
E 109 110 1
E 109 114 5
E 110 112 1
E 110 115 5
E 111 114 4
E 112 116 5
E 114 115 1
E 115 116 1
E 1 118 100000
E 2 118 100000
E 3 119 100000
E 4 119 100000
E 5 120 100000
E 6 120 100000
E 7 121 100000
E 8 121 100000
E 9 121 100000
E 10 121 100000
E 11 122 100000
E 12 122 100000
E 13 122 100000
E 14 122 100000
E 15 123 100000
E 16 123 100000
E 17 123 100000
E 18 123 100000
E 19 124 100000
E 20 124 100000
E 21 124 100000
E 22 124 100000
E 23 125 100000
E 24 125 100000
E 25 125 100000
E 26 125 100000
E 27 126 100000
E 28 126 100000
E 29 126 100000
E 30 126 100000
E 31 126 100000
E 32 127 100000
E 33 127 100000
E 34 128 100000
END

SECTION Terminals
Terminals 11
T 118
T 119
T 120
T 121
T 122
T 123
T 124
T 125
T 126
T 127
T 128
END

EOF
